 SYSTEM =  easyvasp

INCAR-basic
   PREC   = Normal
   ENCUT  = 520 eV
   NELMIN= 5
   LREAL = Auto
   ALGO = Normal
   EDIFF  = 1E-5
   ISPIN = 1
   SIGMA = 0.2
   NPAR = 4     ## important to reduce calculate time, equal sqrt(cpu cores)

 Ionic Relaxation
   ISMEAR = 0
   LALGO = 48
   ICHARG = 2
   EDIFFG = -0.05       #force
   NSW    = 450         #max steps for IOM
   IBRION = 2
   POTIM = 0.5
   ISIF   = 2           #suface:2 crystal:3
   PSTRESS= 0
   LCHARG = .FALSE.
   LWAVE  =  F
   IVDW = 11