 SYSTEM =  easyvasp

INCAR-basic
   PREC   = Accurate
   ENCUT  = 520 eV
   NELMIN= 5
   LREAL = Auto
   ALGO = Normal
   EDIFF  = 1E-5
   ISPIN = 1
   SIGMA = 0.2
   NPAR = 4     ## important to reduce calculate time, equal sqrt(cpu cores)

 Density of states
   NELM = 150
   ICHARG = 11
   LORBIT = 11
   NSW    = 0
   IBRION = -1
   ISMEAR = -5
   NEDOS = 2000
   LCHARG = F
   LWAVE  =  F

#You'd better change easyjob.kpoint to 0.1 